p edge 50 368
e 1 3
e 1 8
e 1 9
e 1 13
e 1 15
e 1 17
e 1 21
e 1 24
e 1 29
e 1 31
e 1 33
e 1 40
e 1 41
e 1 45
e 1 46
e 2 4
e 2 5
e 2 6
e 2 8
e 2 15
e 2 23
e 2 24
e 2 33
e 2 36
e 2 39
e 2 40
e 2 41
e 2 43
e 2 46
e 2 47
e 2 49
e 3 11
e 3 14
e 3 18
e 3 19
e 3 20
e 3 22
e 3 25
e 3 32
e 3 33
e 3 40
e 3 45
e 4 6
e 4 9
e 4 16
e 4 17
e 4 21
e 4 22
e 4 23
e 4 27
e 4 28
e 4 30
e 4 35
e 4 39
e 4 41
e 4 44
e 4 47
e 4 50
e 5 13
e 5 14
e 5 16
e 5 17
e 5 25
e 5 31
e 5 32
e 5 35
e 5 39
e 5 40
e 5 41
e 5 45
e 6 8
e 6 12
e 6 14
e 6 16
e 6 27
e 6 28
e 6 29
e 6 30
e 6 32
e 6 33
e 6 40
e 6 41
e 6 42
e 6 43
e 6 46
e 6 50
e 7 13
e 7 17
e 7 22
e 7 24
e 7 26
e 7 42
e 7 44
e 7 47
e 8 11
e 8 14
e 8 17
e 8 18
e 8 19
e 8 20
e 8 23
e 8 24
e 8 25
e 8 26
e 8 32
e 8 36
e 8 37
e 8 41
e 8 43
e 9 10
e 9 12
e 9 19
e 9 21
e 9 22
e 9 23
e 9 25
e 9 26
e 9 29
e 9 30
e 9 39
e 9 40
e 9 49
e 10 16
e 10 17
e 10 19
e 10 20
e 10 21
e 10 22
e 10 27
e 10 36
e 10 43
e 11 15
e 11 16
e 11 17
e 11 48
e 11 50
e 12 16
e 12 18
e 12 31
e 12 35
e 12 36
e 12 38
e 12 39
e 12 40
e 12 42
e 12 47
e 13 14
e 13 16
e 13 19
e 13 22
e 13 25
e 13 32
e 13 33
e 13 34
e 13 40
e 13 41
e 14 16
e 14 19
e 14 23
e 14 27
e 14 31
e 14 32
e 14 34
e 14 36
e 14 37
e 14 42
e 14 43
e 14 44
e 15 17
e 15 20
e 15 23
e 15 25
e 15 27
e 15 28
e 15 30
e 15 42
e 15 45
e 15 47
e 15 48
e 16 17
e 16 23
e 16 27
e 16 28
e 16 36
e 16 37
e 16 43
e 16 48
e 16 49
e 16 50
e 17 19
e 17 21
e 17 23
e 17 24
e 17 25
e 17 27
e 17 37
e 17 38
e 17 46
e 18 19
e 18 21
e 18 22
e 18 23
e 18 29
e 18 32
e 18 34
e 18 35
e 18 37
e 18 43
e 18 47
e 18 48
e 19 20
e 19 25
e 19 26
e 19 29
e 19 31
e 19 35
e 19 36
e 19 38
e 19 40
e 19 41
e 19 48
e 20 21
e 20 23
e 20 26
e 20 27
e 20 29
e 20 32
e 20 33
e 20 34
e 20 35
e 20 36
e 20 48
e 21 25
e 21 30
e 21 31
e 21 40
e 21 46
e 21 47
e 21 48
e 22 24
e 22 32
e 22 38
e 22 42
e 22 47
e 22 48
e 22 50
e 23 25
e 23 26
e 23 30
e 23 31
e 23 32
e 23 34
e 23 36
e 23 42
e 23 43
e 24 25
e 24 26
e 24 32
e 24 34
e 24 36
e 24 38
e 24 43
e 24 47
e 24 48
e 24 49
e 24 50
e 25 28
e 25 30
e 25 32
e 25 34
e 25 35
e 25 38
e 25 41
e 25 48
e 25 49
e 26 28
e 26 29
e 26 31
e 26 37
e 26 39
e 26 43
e 27 32
e 27 35
e 27 37
e 27 39
e 27 42
e 27 45
e 27 47
e 27 50
e 28 35
e 28 36
e 28 38
e 28 42
e 28 43
e 28 48
e 29 32
e 29 36
e 29 37
e 29 38
e 29 39
e 29 42
e 29 43
e 29 45
e 29 46
e 29 48
e 30 35
e 30 37
e 30 39
e 30 41
e 30 47
e 30 49
e 30 50
e 31 32
e 31 38
e 31 40
e 32 34
e 32 40
e 32 42
e 32 45
e 32 47
e 32 50
e 33 34
e 33 35
e 33 40
e 33 41
e 33 42
e 33 44
e 33 49
e 34 37
e 34 38
e 34 39
e 34 42
e 34 44
e 34 47
e 34 50
e 35 38
e 35 41
e 35 46
e 35 49
e 36 38
e 36 39
e 36 41
e 36 45
e 36 47
e 37 38
e 37 39
e 38 41
e 39 46
e 39 47
e 39 48
e 39 50
e 40 42
e 40 43
e 40 50
e 41 45
e 41 46
e 41 49
e 42 45
e 42 47
e 42 48
e 44 45
e 44 47
e 44 49
e 45 47
e 45 48
e 47 48
e 48 49
e 48 50
